# Objective value = 5
x0,1_5 1
x0,1_6 0
x0,1_11 0
x0,1_12 0
x0,1_13 0
x0,1_19 0
x0,1_24 0
x0,1_25 0
x0,1_31 0
x0,1_36 0
x0,2_5 0
x0,2_6 0
x0,2_11 1
x0,2_12 0
x0,2_13 0
x0,2_19 0
x0,2_24 0
x0,2_25 0
x0,2_31 0
x0,2_36 0
x0,3_5 0
x0,3_6 0
x0,3_11 0
x0,3_12 0
x0,3_13 0
x0,3_19 0
x0,3_24 1
x0,3_25 0
x0,3_31 0
x0,3_36 0
x0,4_5 0
x0,4_6 0
x0,4_11 0
x0,4_12 0
x0,4_13 0
x0,4_19 0
x0,4_24 0
x0,4_25 0
x0,4_31 0
x0,4_36 1
x0,5_5 0
x0,5_6 0
x0,5_11 0
x0,5_12 0
x0,5_13 0
x0,5_19 0
x0,5_24 0
x0,5_25 0
x0,5_31 0
x0,5_36 0
x0,6_5 0
x0,6_6 0
x0,6_11 0
x0,6_12 0
x0,6_13 0
x0,6_19 0
x0,6_24 0
x0,6_25 0
x0,6_31 0
x0,6_36 0
x0,7_5 0
x0,7_6 0
x0,7_11 0
x0,7_12 0
x0,7_13 0
x0,7_19 0
x0,7_24 0
x0,7_25 0
x0,7_31 0
x0,7_36 0
x0,8_5 0
x0,8_6 0
x0,8_11 0
x0,8_12 0
x0,8_13 0
x0,8_19 0
x0,8_24 0
x0,8_25 0
x0,8_31 0
x0,8_36 0
x0,9_5 0
x0,9_6 0
x0,9_11 0
x0,9_12 0
x0,9_13 0
x0,9_19 0
x0,9_24 0
x0,9_25 0
x0,9_31 0
x0,9_36 0
x0,10_5 0
x0,10_6 0
x0,10_11 0
x0,10_12 0
x0,10_13 0
x0,10_19 0
x0,10_24 0
x0,10_25 0
x0,10_31 0
x0,10_36 0
x1,2_5 0
x1,2_6 1
x1,2_11 0
x1,2_12 0
x1,2_13 0
x1,2_19 0
x1,2_24 0
x1,2_25 0
x1,2_31 0
x1,2_36 0
x1,3_5 0
x1,3_6 0
x1,3_11 0
x1,3_12 0
x1,3_13 0
x1,3_19 1
x1,3_24 0
x1,3_25 0
x1,3_31 0
x1,3_36 0
x1,4_5 0
x1,4_6 0
x1,4_11 0
x1,4_12 0
x1,4_13 0
x1,4_19 0
x1,4_24 0
x1,4_25 0
x1,4_31 1
x1,4_36 0
x1,5_5 0
x1,5_6 0
x1,5_11 0
x1,5_12 0
x1,5_13 0
x1,5_19 0
x1,5_24 0
x1,5_25 0
x1,5_31 0
x1,5_36 0
x1,6_5 0
x1,6_6 0
x1,6_11 0
x1,6_12 0
x1,6_13 0
x1,6_19 0
x1,6_24 0
x1,6_25 0
x1,6_31 0
x1,6_36 0
x1,7_5 0
x1,7_6 0
x1,7_11 0
x1,7_12 0
x1,7_13 0
x1,7_19 0
x1,7_24 0
x1,7_25 0
x1,7_31 0
x1,7_36 0
x1,8_5 0
x1,8_6 0
x1,8_11 0
x1,8_12 0
x1,8_13 0
x1,8_19 0
x1,8_24 0
x1,8_25 0
x1,8_31 0
x1,8_36 0
x1,9_5 0
x1,9_6 0
x1,9_11 0
x1,9_12 0
x1,9_13 0
x1,9_19 0
x1,9_24 0
x1,9_25 0
x1,9_31 0
x1,9_36 0
x1,10_5 0
x1,10_6 0
x1,10_11 0
x1,10_12 0
x1,10_13 0
x1,10_19 0
x1,10_24 0
x1,10_25 0
x1,10_31 0
x1,10_36 0
x2,3_5 0
x2,3_6 0
x2,3_11 0
x2,3_12 0
x2,3_13 1
x2,3_19 0
x2,3_24 0
x2,3_25 0
x2,3_31 0
x2,3_36 0
x2,4_5 0
x2,4_6 0
x2,4_11 0
x2,4_12 0
x2,4_13 0
x2,4_19 0
x2,4_24 0
x2,4_25 1
x2,4_31 0
x2,4_36 0
x2,5_5 0
x2,5_6 0
x2,5_11 0
x2,5_12 0
x2,5_13 0
x2,5_19 0
x2,5_24 0
x2,5_25 0
x2,5_31 0
x2,5_36 0
x2,6_5 0
x2,6_6 0
x2,6_11 0
x2,6_12 0
x2,6_13 0
x2,6_19 0
x2,6_24 0
x2,6_25 0
x2,6_31 0
x2,6_36 0
x2,7_5 0
x2,7_6 0
x2,7_11 0
x2,7_12 0
x2,7_13 0
x2,7_19 0
x2,7_24 0
x2,7_25 0
x2,7_31 0
x2,7_36 0
x2,8_5 0
x2,8_6 0
x2,8_11 0
x2,8_12 0
x2,8_13 0
x2,8_19 0
x2,8_24 0
x2,8_25 0
x2,8_31 0
x2,8_36 0
x2,9_5 0
x2,9_6 0
x2,9_11 0
x2,9_12 0
x2,9_13 0
x2,9_19 0
x2,9_24 0
x2,9_25 0
x2,9_31 0
x2,9_36 0
x2,10_5 0
x2,10_6 0
x2,10_11 0
x2,10_12 0
x2,10_13 0
x2,10_19 0
x2,10_24 0
x2,10_25 0
x2,10_31 0
x2,10_36 0
x3,4_5 0
x3,4_6 0
x3,4_11 0
x3,4_12 1
x3,4_13 0
x3,4_19 0
x3,4_24 0
x3,4_25 0
x3,4_31 0
x3,4_36 0
x3,5_5 0
x3,5_6 0
x3,5_11 0
x3,5_12 0
x3,5_13 0
x3,5_19 0
x3,5_24 0
x3,5_25 0
x3,5_31 0
x3,5_36 0
x3,6_5 0
x3,6_6 0
x3,6_11 0
x3,6_12 0
x3,6_13 0
x3,6_19 0
x3,6_24 0
x3,6_25 0
x3,6_31 0
x3,6_36 0
x3,7_5 0
x3,7_6 0
x3,7_11 0
x3,7_12 0
x3,7_13 0
x3,7_19 0
x3,7_24 0
x3,7_25 0
x3,7_31 0
x3,7_36 0
x3,8_5 0
x3,8_6 0
x3,8_11 0
x3,8_12 0
x3,8_13 0
x3,8_19 0
x3,8_24 0
x3,8_25 0
x3,8_31 0
x3,8_36 0
x3,9_5 0
x3,9_6 0
x3,9_11 0
x3,9_12 0
x3,9_13 0
x3,9_19 0
x3,9_24 0
x3,9_25 0
x3,9_31 0
x3,9_36 0
x3,10_5 0
x3,10_6 0
x3,10_11 0
x3,10_12 0
x3,10_13 0
x3,10_19 0
x3,10_24 0
x3,10_25 0
x3,10_31 0
x3,10_36 0
x4,5_5 0
x4,5_6 0
x4,5_11 0
x4,5_12 0
x4,5_13 0
x4,5_19 0
x4,5_24 0
x4,5_25 0
x4,5_31 0
x4,5_36 0
x4,6_5 0
x4,6_6 0
x4,6_11 0
x4,6_12 0
x4,6_13 0
x4,6_19 0
x4,6_24 0
x4,6_25 0
x4,6_31 0
x4,6_36 0
x4,7_5 0
x4,7_6 0
x4,7_11 0
x4,7_12 0
x4,7_13 0
x4,7_19 0
x4,7_24 0
x4,7_25 0
x4,7_31 0
x4,7_36 0
x4,8_5 0
x4,8_6 0
x4,8_11 0
x4,8_12 0
x4,8_13 0
x4,8_19 0
x4,8_24 0
x4,8_25 0
x4,8_31 0
x4,8_36 0
x4,9_5 0
x4,9_6 0
x4,9_11 0
x4,9_12 0
x4,9_13 0
x4,9_19 0
x4,9_24 0
x4,9_25 0
x4,9_31 0
x4,9_36 0
x4,10_5 0
x4,10_6 0
x4,10_11 0
x4,10_12 0
x4,10_13 0
x4,10_19 0
x4,10_24 0
x4,10_25 0
x4,10_31 0
x4,10_36 0
x5,6_5 0
x5,6_6 0
x5,6_11 0
x5,6_12 0
x5,6_13 0
x5,6_19 0
x5,6_24 0
x5,6_25 0
x5,6_31 0
x5,6_36 0
x5,7_5 0
x5,7_6 0
x5,7_11 0
x5,7_12 0
x5,7_13 0
x5,7_19 0
x5,7_24 0
x5,7_25 0
x5,7_31 0
x5,7_36 0
x5,8_5 0
x5,8_6 0
x5,8_11 0
x5,8_12 0
x5,8_13 0
x5,8_19 0
x5,8_24 0
x5,8_25 0
x5,8_31 0
x5,8_36 0
x5,9_5 0
x5,9_6 0
x5,9_11 0
x5,9_12 0
x5,9_13 0
x5,9_19 0
x5,9_24 0
x5,9_25 0
x5,9_31 0
x5,9_36 0
x5,10_5 0
x5,10_6 0
x5,10_11 0
x5,10_12 0
x5,10_13 0
x5,10_19 0
x5,10_24 0
x5,10_25 0
x5,10_31 0
x5,10_36 0
x6,7_5 0
x6,7_6 0
x6,7_11 0
x6,7_12 0
x6,7_13 0
x6,7_19 0
x6,7_24 0
x6,7_25 0
x6,7_31 0
x6,7_36 0
x6,8_5 0
x6,8_6 0
x6,8_11 0
x6,8_12 0
x6,8_13 0
x6,8_19 0
x6,8_24 0
x6,8_25 0
x6,8_31 0
x6,8_36 0
x6,9_5 0
x6,9_6 0
x6,9_11 0
x6,9_12 0
x6,9_13 0
x6,9_19 0
x6,9_24 0
x6,9_25 0
x6,9_31 0
x6,9_36 0
x6,10_5 0
x6,10_6 0
x6,10_11 0
x6,10_12 0
x6,10_13 0
x6,10_19 0
x6,10_24 0
x6,10_25 0
x6,10_31 0
x6,10_36 0
x7,8_5 0
x7,8_6 0
x7,8_11 0
x7,8_12 0
x7,8_13 0
x7,8_19 0
x7,8_24 0
x7,8_25 0
x7,8_31 0
x7,8_36 0
x7,9_5 0
x7,9_6 0
x7,9_11 0
x7,9_12 0
x7,9_13 0
x7,9_19 0
x7,9_24 0
x7,9_25 0
x7,9_31 0
x7,9_36 0
x7,10_5 0
x7,10_6 0
x7,10_11 0
x7,10_12 0
x7,10_13 0
x7,10_19 0
x7,10_24 0
x7,10_25 0
x7,10_31 0
x7,10_36 0
x8,9_5 0
x8,9_6 0
x8,9_11 0
x8,9_12 0
x8,9_13 0
x8,9_19 0
x8,9_24 0
x8,9_25 0
x8,9_31 0
x8,9_36 0
x8,10_5 0
x8,10_6 0
x8,10_11 0
x8,10_12 0
x8,10_13 0
x8,10_19 0
x8,10_24 0
x8,10_25 0
x8,10_31 0
x8,10_36 0
x9,10_5 0
x9,10_6 0
x9,10_11 0
x9,10_12 0
x9,10_13 0
x9,10_19 0
x9,10_24 0
x9,10_25 0
x9,10_31 0
x9,10_36 0
z0 1
z1 1
z2 1
z3 1
z4 1
z5 0
z6 0
z7 0
z8 0
z9 0
z10 0
p0 4
p1 9
p2 15
p3 28
p4 40
p5 50
p6 61
p7 62
p8 64
p9 68
p10 69
